NAME          DCAP_3_4_2_300_SS251
ROWS
 N  OBJ
 L  CON1
 L  CON2
 L  CON3
 L  CON4
 L  CON5
 L  CON6
 L  CON7
 L  CON8
 L  CON9
 L  CON10
 L  CON11
 L  CON12
 E  CON13
 E  CON14
 E  CON15
 E  CON16
 E  CON17
 E  CON18
 E  CON19
 E  CON20
COLUMNS
    x[1,1]    OBJ       6.180167      CON1      1.000000    
    x[1,1]    CON7      -1.000000     CON8      -1.000000   
    x[1,2]    OBJ       5.039546      CON2      1.000000    
    x[1,2]    CON8      -1.000000   
    x[2,1]    OBJ       6.732585      CON3      1.000000    
    x[2,1]    CON9      -1.000000     CON10     -1.000000   
    x[2,2]    OBJ       7.443064      CON4      1.000000    
    x[2,2]    CON10     -1.000000   
    x[3,1]    OBJ       6.563535      CON5      1.000000    
    x[3,1]    CON11     -1.000000     CON12     -1.000000   
    x[3,2]    OBJ       6.054841      CON6      1.000000    
    x[3,2]    CON12     -1.000000   
    MARKER    'MARKER'                'INTORG'
    u[1,1]    OBJ       48.076654     CON1      -1.000000   
    u[1,2]    OBJ       49.466655     CON2      -1.000000   
    u[2,1]    OBJ       49.996186     CON3      -1.000000   
    u[2,2]    OBJ       32.230043     CON4      -1.000000   
    u[3,1]    OBJ       20.066487     CON5      -1.000000   
    u[3,2]    OBJ       27.484319     CON6      -1.000000   
    y[1,1,1]  OBJ       8.038045      CON7      1.140510    
    y[1,1,1]  CON13     1.000000    
    y[1,1,2]  OBJ       6.705364      CON8      1.146285    
    y[1,1,2]  CON14     1.000000    
    y[1,2,1]  OBJ       5.410291      CON7      1.321190    
    y[1,2,1]  CON15     1.000000    
    y[1,2,2]  OBJ       8.040300      CON8      0.665005    
    y[1,2,2]  CON16     1.000000    
    y[1,3,1]  OBJ       7.110272      CON7      0.837805    
    y[1,3,1]  CON17     1.000000    
    y[1,3,2]  OBJ       6.410327      CON8      0.914298    
    y[1,3,2]  CON18     1.000000    
    y[1,4,1]  OBJ       6.092727      CON7      1.008768    
    y[1,4,1]  CON19     1.000000    
    y[1,4,2]  OBJ       5.958041      CON8      1.268782    
    y[1,4,2]  CON20     1.000000    
    y[2,1,1]  OBJ       5.915400      CON9      1.140510    
    y[2,1,1]  CON13     1.000000    
    y[2,1,2]  OBJ       9.156657      CON10     1.146285    
    y[2,1,2]  CON14     1.000000    
    y[2,2,1]  OBJ       8.695736      CON9      1.321190    
    y[2,2,1]  CON15     1.000000    
    y[2,2,2]  OBJ       6.446990      CON10     0.665005    
    y[2,2,2]  CON16     1.000000    
    y[2,3,1]  OBJ       5.650511      CON9      0.837805    
    y[2,3,1]  CON17     1.000000    
    y[2,3,2]  OBJ       5.418978      CON10     0.914298    
    y[2,3,2]  CON18     1.000000    
    y[2,4,1]  OBJ       5.267454      CON9      1.008768    
    y[2,4,1]  CON19     1.000000    
    y[2,4,2]  OBJ       5.638125      CON10     1.268782    
    y[2,4,2]  CON20     1.000000    
    y[3,1,1]  OBJ       5.642643      CON11     1.140510    
    y[3,1,1]  CON13     1.000000    
    y[3,1,2]  OBJ       5.365928      CON12     1.146285    
    y[3,1,2]  CON14     1.000000    
    y[3,2,1]  OBJ       8.669886      CON11     1.321190    
    y[3,2,1]  CON15     1.000000    
    y[3,2,2]  OBJ       8.546797      CON12     0.665005    
    y[3,2,2]  CON16     1.000000    
    y[3,3,1]  OBJ       5.801641      CON11     0.837805    
    y[3,3,1]  CON17     1.000000    
    y[3,3,2]  OBJ       5.450995      CON12     0.914298    
    y[3,3,2]  CON18     1.000000    
    y[3,4,1]  OBJ       7.248007      CON11     1.008768    
    y[3,4,1]  CON19     1.000000    
    y[3,4,2]  OBJ       5.994873      CON12     1.268782    
    y[3,4,2]  CON20     1.000000    
    z[1,1]    OBJ       575.679617    CON13     1.000000    
    z[1,2]    OBJ       945.335870    CON14     1.000000    
    z[2,1]    OBJ       537.236581    CON15     1.000000    
    z[2,2]    OBJ       800.257371    CON16     1.000000    
    z[3,1]    OBJ       920.954547    CON17     1.000000    
    z[3,2]    OBJ       576.827951    CON18     1.000000    
    z[4,1]    OBJ       978.119960    CON19     1.000000    
    z[4,2]    OBJ       653.384191    CON20     1.000000    
    MARKER    'MARKER'                 'INTEND'
RHS
    RHS       CON1      -0.000000     CON2      -0.000000   
    RHS       CON3      -0.000000     CON4      -0.000000   
    RHS       CON5      -0.000000     CON6      -0.000000   
    RHS       CON7      -0.000000     CON8      -0.000000   
    RHS       CON9      -0.000000     CON10     -0.000000   
    RHS       CON11     -0.000000     CON12     -0.000000   
    RHS       CON13     1.000000      CON14     1.000000    
    RHS       CON15     1.000000      CON16     1.000000    
    RHS       CON17     1.000000      CON18     1.000000    
    RHS       CON19     1.000000      CON20     1.000000    
BOUNDS
 BV BOUND     u[1,1]  
 BV BOUND     u[1,2]  
 BV BOUND     u[2,1]  
 BV BOUND     u[2,2]  
 BV BOUND     u[3,1]  
 BV BOUND     u[3,2]  
 BV BOUND     y[1,1,1]
 BV BOUND     y[1,1,2]
 BV BOUND     y[1,2,1]
 BV BOUND     y[1,2,2]
 BV BOUND     y[1,3,1]
 BV BOUND     y[1,3,2]
 BV BOUND     y[1,4,1]
 BV BOUND     y[1,4,2]
 BV BOUND     y[2,1,1]
 BV BOUND     y[2,1,2]
 BV BOUND     y[2,2,1]
 BV BOUND     y[2,2,2]
 BV BOUND     y[2,3,1]
 BV BOUND     y[2,3,2]
 BV BOUND     y[2,4,1]
 BV BOUND     y[2,4,2]
 BV BOUND     y[3,1,1]
 BV BOUND     y[3,1,2]
 BV BOUND     y[3,2,1]
 BV BOUND     y[3,2,2]
 BV BOUND     y[3,3,1]
 BV BOUND     y[3,3,2]
 BV BOUND     y[3,4,1]
 BV BOUND     y[3,4,2]
 BV BOUND     z[1,1]  
 BV BOUND     z[1,2]  
 BV BOUND     z[2,1]  
 BV BOUND     z[2,2]  
 BV BOUND     z[3,1]  
 BV BOUND     z[3,2]  
 BV BOUND     z[4,1]  
 BV BOUND     z[4,2]  
ENDATA
